Problem:    Finestre
Rows:       33
Columns:    21 (15 integer, 15 binary)
Non-zeros:  77
Status:     INTEGER OPTIMAL
Objective:  durata = 380 (MINimum)

   No.   Row name        Activity     Lower bound   Upper bound
------ ------------    ------------- ------------- -------------
     1 Tempi[1]                   48            48               
     2 Tempi[2]                  100            80               
     3 Tempi[3]                   92            72               
     4 Tempi[4]                   88            88               
     5 Tempi[5]                   52            52               
     6 Lower[0,1]               -172                          -0 
     7 Lower[1,1]               -220                          -0 
     8 Lower[1,2]               -220                          -0 
     9 Lower[1,3]                -20                          -0 
    10 Lower[2,1]               -320                          -0 
    11 Lower[2,2]               -320                          -0 
    12 Lower[2,3]                  0                          -0 
    13 Lower[3,1]               -412                          -0 
    14 Lower[3,2]               -412                          -0 
    15 Lower[3,3]               -412                          -0 
    16 Lower[3,4]                  0                          -0 
    17 Lower[4,1]               -500                          -0 
    18 Lower[4,2]               -500                          -0 
    19 Lower[4,3]                -36                          -0 
    20 Lower[5,1]                -92                          -0 
    21 Upper[0]                   28            -0               
    22 Upper[1]                    0            -0               
    23 Upper[2]                   24            -0               
    24 Upper[3]                    8            -0               
    25 Upper[4]                    4            -0               
    26 Upper[5]                    8            -0               
    27 TW[0]                       1             1             = 
    28 TW[1]                       1             1             = 
    29 TW[2]                       1             1             = 
    30 TW[3]                       1             1             = 
    31 TW[4]                       1             1             = 
    32 TW[5]                       1             1             = 
    33 durata                    380                             

   No. Column name       Activity     Lower bound   Upper bound
------ ------------    ------------- ------------- -------------
     1 t[1]                      220                             
     2 t[0]                      172                             
     3 t[2]                      320                             
     4 t[3]                      412                             
     5 t[4]                      500                             
     6 t[5]                      552                             
     7 x[0,1]       *              1             0             1 
     8 x[1,1]       *              0             0             1 
     9 x[1,2]       *              0             0             1 
    10 x[1,3]       *              1             0             1 
    11 x[2,1]       *              0             0             1 
    12 x[2,2]       *              0             0             1 
    13 x[2,3]       *              1             0             1 
    14 x[3,1]       *              0             0             1 
    15 x[3,2]       *              0             0             1 
    16 x[3,3]       *              0             0             1 
    17 x[3,4]       *              1             0             1 
    18 x[4,1]       *              0             0             1 
    19 x[4,2]       *              0             0             1 
    20 x[4,3]       *              1             0             1 
    21 x[5,1]       *              1             0             1 

Integer feasibility conditions:

KKT.PE: max.abs.err = 0.00e+000 on row 0
        max.rel.err = 0.00e+000 on row 0
        High quality

KKT.PB: max.abs.err = 3.41e-013 on row 16
        max.rel.err = 3.41e-013 on row 16
        High quality

End of output
